This is Ipopt version 3.14.16, running with linear solver MUMPS 5.7.3.

Number of nonzeros in equality constraint Jacobian...:        0
Number of nonzeros in inequality constraint Jacobian.:       13
Number of nonzeros in Lagrangian Hessian.............:        0

Total number of variables............................:       13
                     variables with only lower bounds:        0
                variables with lower and upper bounds:       13
                     variables with only upper bounds:        0
Total number of equality constraints.................:        0
Total number of inequality constraints...............:        1
        inequality constraints with only lower bounds:        0
   inequality constraints with lower and upper bounds:        0
        inequality constraints with only upper bounds:        1

iter    objective    inf_pr   inf_du lg(mu)  ||d||  lg(rg) alpha_du alpha_pr  ls
   0  1.4105570e-02 0.00e+00 9.87e-01   0.0 0.00e+00    -  0.00e+00 0.00e+00   0
   1  1.2184139e-02 0.00e+00 1.47e-02  -1.7 2.00e-02    -  9.90e-01 1.00e+00f  1
   2  7.8369472e-03 0.00e+00 7.80e-03  -2.9 1.05e-01    -  1.00e+00 1.00e+00h  1
   3  5.7417200e-03 0.00e+00 7.49e-03  -4.5 3.18e-01    -  9.98e-01 1.00e+00h  1
   4  5.6585032e-03 3.54e-05 3.85e-03  -6.1 4.52e-03    -  1.00e+00 1.00e+00h  1
   5  5.6454389e-03 2.79e-05 2.54e-03  -8.2 2.24e-03    -  1.00e+00 1.00e+00h  1
   6  5.6297601e-03 1.66e-04 1.08e-03 -10.2 6.15e-03    -  1.00e+00 1.00e+00h  1
   7  5.6370889e-03 1.26e-07 3.48e-03 -11.0 6.28e-03    -  1.00e+00 1.00e+00H  1
   8  5.6240404e-03 0.00e+00 6.04e-04 -11.0 2.14e-03    -  1.00e+00 1.00e+00h  1
   9  5.6233206e-03 0.00e+00 3.28e-04 -11.0 5.97e-04    -  1.00e+00 1.00e+00h  1
iter    objective    inf_pr   inf_du lg(mu)  ||d||  lg(rg) alpha_du alpha_pr  ls
  10  5.6228355e-03 0.00e+00 2.83e-04 -11.0 8.03e-04    -  1.00e+00 1.00e+00h  1
  11  5.6250934e-03 7.84e-10 1.71e-03 -11.0 4.75e-03    -  1.00e+00 1.00e+00H  1
  12  5.6232581e-03 2.51e-07 7.87e-04 -11.0 2.32e-03    -  1.00e+00 1.00e+00h  1
  13  5.6221057e-03 0.00e+00 3.70e-04 -11.0 1.75e-03    -  1.00e+00 1.00e+00h  1
  14  5.6218340e-03 0.00e+00 1.29e-04 -11.0 6.42e-04    -  1.00e+00 1.00e+00h  1
  15  5.6217650e-03 0.00e+00 1.12e-04 -11.0 2.60e-04    -  1.00e+00 1.00e+00h  1
  16  5.6218329e-03 0.00e+00 3.44e-04 -11.0 1.18e-03    -  1.00e+00 1.00e+00H  1
  17  5.6223382e-03 0.00e+00 5.29e-04 -11.0 2.80e-03    -  1.00e+00 1.00e+00H  1
  18  5.6220480e-03 0.00e+00 5.95e-04 -11.0 2.85e-03    -  1.00e+00 5.00e-01f  2
  19  5.6218098e-03 0.00e+00 4.80e-04 -11.0 1.85e-03    -  1.00e+00 1.00e+00H  1
iter    objective    inf_pr   inf_du lg(mu)  ||d||  lg(rg) alpha_du alpha_pr  ls
  20  5.6251005e-03 0.00e+00 1.24e-03 -11.0 2.87e-03    -  1.00e+00 1.00e+00H  1
  21  5.6217390e-03 0.00e+00 2.42e-04 -11.0 3.21e-03    -  1.00e+00 1.00e+00h  1
  22  5.6254034e-03 1.10e-05 1.77e-03 -11.0 1.53e-03    -  1.00e+00 1.00e+00h  1
  23  5.6216512e-03 0.00e+00 1.41e-05 -11.0 1.42e-03    -  1.00e+00 1.00e+00h  1
  24  5.6215091e-03 0.00e+00 1.23e-05 -11.0 1.68e-05    -  1.00e+00 1.00e+00h  1
  25  5.6215088e-03 0.00e+00 7.70e-06 -11.0 1.28e-05    -  1.00e+00 1.00e+00h  1
  26  5.6215099e-03 0.00e+00 5.25e-05 -11.0 1.48e-04    -  1.00e+00 1.00e+00H  1
  27  5.6215109e-03 0.00e+00 8.62e-05 -11.0 2.31e-04    -  1.00e+00 1.00e+00H  1
  28  5.6215078e-03 1.49e-09 6.58e-05 -11.0 3.11e-04    -  1.00e+00 2.50e-01f  3
  29  5.6215029e-03 1.84e-09 2.02e-05 -11.0 1.02e-04    -  1.00e+00 1.00e+00h  1
iter    objective    inf_pr   inf_du lg(mu)  ||d||  lg(rg) alpha_du alpha_pr  ls
  30  5.6215006e-03 6.10e-10 2.29e-05 -11.0 7.95e-05    -  1.00e+00 1.00e+00h  1
  31  5.6215028e-03 0.00e+00 6.73e-05 -11.0 3.26e-04    -  1.00e+00 1.00e+00H  1
  32  5.6215999e-03 0.00e+00 1.85e-04 -11.0 2.41e-03    -  1.00e+00 1.00e+00H  1
  33  5.6215934e-03 1.38e-08 2.18e-04 -11.0 4.39e-03    -  1.00e+00 6.25e-02f  5
  34  5.6215541e-03 1.78e-06 2.11e-04 -11.0 2.01e-03    -  1.00e+00 1.00e+00h  1
  35  5.6430428e-03 0.00e+00 4.24e-03 -11.0 1.46e-02    -  1.00e+00 1.00e+00H  1
  36  5.6128736e-03 1.69e-03 1.19e-03 -11.0 2.04e-02    -  1.00e+00 1.00e+00f  1
  37  1.0160870e+00 4.52e-04 1.21e+01 -11.0 2.05e-01    -  1.00e+00 1.00e+00H  1
  38  4.4908765e-02 5.28e-01 2.70e-01 -11.0 3.29e-01    -  9.22e-01 1.00e+00f  1
  39  1.5516123e-02 0.00e+00 1.01e-01 -11.0 5.43e+00    -  3.68e-01 1.07e-01h  3
iter    objective    inf_pr   inf_du lg(mu)  ||d||  lg(rg) alpha_du alpha_pr  ls
  40  6.1283899e-03 2.85e-01 5.65e-02 -11.0 1.28e+00    -  1.00e+00 4.53e-01h  1
  41  7.7693760e-03 2.37e-02 6.39e-02 -11.0 5.28e-02    -  1.00e+00 1.00e+00h  1
  42  5.7583935e-03 5.67e-03 1.38e-02 -11.0 4.37e-02    -  1.00e+00 1.00e+00h  1
  43  5.6719038e-03 4.81e-04 5.26e-03 -11.0 7.41e-03    -  1.00e+00 1.00e+00h  1
  44  5.6496266e-03 3.39e-06 1.84e-03 -11.0 2.61e-03    -  1.00e+00 1.00e+00h  1
  45  5.6403768e-03 3.66e-04 1.28e-03 -11.0 1.81e-03    -  1.00e+00 1.00e+00h  1
  46  5.6352073e-03 0.00e+00 1.50e-03 -11.0 3.99e-03    -  1.00e+00 1.00e+00h  1
  47  5.6433560e-03 3.19e-04 4.24e-03 -11.0 6.15e-03    -  1.00e+00 1.00e+00h  1
  48  5.6257800e-03 2.56e-05 5.48e-04 -11.0 2.64e-03    -  1.00e+00 1.00e+00h  1
  49  5.6252976e-03 9.27e-07 3.73e-04 -11.0 4.90e-04    -  1.00e+00 1.00e+00h  1
iter    objective    inf_pr   inf_du lg(mu)  ||d||  lg(rg) alpha_du alpha_pr  ls
  50  5.6248054e-03 2.94e-07 3.64e-04 -11.0 5.41e-04    -  1.00e+00 1.00e+00h  1
  51  5.6279807e-03 0.00e+00 2.49e-03 -11.0 6.16e-03    -  1.00e+00 1.00e+00H  1
  52  5.6275375e-03 1.15e-08 1.75e-03 -11.0 4.23e-03    -  1.00e+00 1.00e+00H  1
  53  5.6241715e-03 0.00e+00 1.18e-03 -11.0 5.14e-03    -  1.00e+00 1.00e+00h  1
  54  5.6224299e-03 2.00e-07 3.56e-04 -11.0 1.11e-03    -  1.00e+00 1.00e+00h  1
  55  5.6219874e-03 0.00e+00 1.03e-04 -11.0 1.24e-03    -  1.00e+00 1.00e+00h  1
  56  5.6217512e-03 1.06e-05 9.38e-05 -11.0 6.91e-04    -  1.00e+00 1.00e+00h  1
  57  5.6289899e-03 0.00e+00 2.10e-03 -11.0 9.60e-03    -  1.00e+00 1.00e+00H  1
  58  5.6238302e-03 2.00e-11 1.07e-03 -11.0 6.07e-03    -  1.00e+00 1.00e+00F  1
  59  5.6825931e-03 0.00e+00 5.59e-03 -11.0 1.40e-02    -  1.00e+00 1.00e+00H  1
iter    objective    inf_pr   inf_du lg(mu)  ||d||  lg(rg) alpha_du alpha_pr  ls
  60  5.6231130e-03 1.00e-08 8.33e-04 -11.0 1.32e-02    -  1.00e+00 1.00e+00F  1
  61  5.6311354e-03 0.00e+00 2.62e-03 -11.0 5.70e-03    -  1.00e+00 1.00e+00H  1
  62  5.6221044e-03 0.00e+00 5.59e-04 -11.0 3.21e-03    -  1.00e+00 1.00e+00F  1
  63  5.6214121e-03 1.33e-04 7.56e-04 -11.0 2.30e-03    -  1.00e+00 1.00e+00h  1
  64  5.6219438e-03 8.13e-06 5.67e-04 -11.0 1.34e-03    -  1.00e+00 1.00e+00h  1
  65  5.6214422e-03 4.95e-05 2.82e-04 -11.0 1.30e-03    -  1.00e+00 1.00e+00h  1
  66  5.6214161e-03 2.51e-05 1.23e-04 -11.0 8.56e-04    -  1.00e+00 1.00e+00h  1
  67  5.6216839e-03 0.00e+00 2.55e-04 -11.0 5.09e-04    -  1.00e+00 1.00e+00h  1
  68  5.6215556e-03 0.00e+00 2.47e-05 -11.0 5.07e-04    -  1.00e+00 1.00e+00h  1
  69  5.6215557e-03 0.00e+00 5.73e-05 -11.0 8.59e-05    -  1.00e+00 1.00e+00h  1
iter    objective    inf_pr   inf_du lg(mu)  ||d||  lg(rg) alpha_du alpha_pr  ls
  70  5.6215516e-03 5.70e-11 1.16e-05 -11.0 4.68e-05    -  1.00e+00 1.00e+00h  1
  71  5.6215512e-03 0.00e+00 9.27e-06 -11.0 1.14e-05    -  1.00e+00 1.00e+00h  1
  72  5.6215554e-03 0.00e+00 1.00e-04 -11.0 2.83e-04    -  1.00e+00 1.00e+00H  1
  73  5.6216391e-03 0.00e+00 2.31e-04 -11.0 9.51e-04    -  1.00e+00 1.00e+00H  1
  74  5.6216391e-03 0.00e+00 2.31e-04 -11.0 9.06e-04    -  1.00e+00 3.05e-05h 16
  75  5.6216389e-03 0.00e+00 2.31e-04 -11.0 1.83e-03    -  1.00e+00 2.44e-04h 13
  76  5.6215605e-03 0.00e+00 1.29e-04 -11.0 9.64e-04    -  1.00e+00 1.00e+00F  1
  77  5.6215491e-03 0.00e+00 9.94e-05 -11.0 1.93e-03    -  1.00e+00 6.25e-02h  5
  78  5.6215376e-03 0.00e+00 3.66e-05 -11.0 3.82e-04    -  1.00e+00 1.00e+00h  1
  79  5.6221759e-03 0.00e+00 6.82e-04 -11.0 1.78e-03    -  1.00e+00 1.00e+00H  1
iter    objective    inf_pr   inf_du lg(mu)  ||d||  lg(rg) alpha_du alpha_pr  ls
  80  5.6215220e-03 2.09e-06 5.65e-05 -11.0 1.75e-03    -  1.00e+00 1.00e+00f  1
  81  5.6215329e-03 1.57e-06 7.91e-05 -11.0 8.41e-04    -  1.00e+00 2.50e-01h  3
  82  5.6215306e-03 4.51e-09 1.71e-05 -11.0 5.92e-05    -  1.00e+00 1.00e+00h  1
  83  5.6215301e-03 0.00e+00 1.07e-05 -11.0 1.68e-05    -  1.00e+00 1.00e+00h  1
  84  5.6215253e-03 8.07e-08 3.33e-05 -11.0 3.31e-04    -  1.00e+00 1.00e+00h  1
  85  5.6442084e-03 0.00e+00 3.18e-03 -11.0 2.02e-02    -  1.00e+00 1.00e+00H  1
  86  5.6217965e-03 0.00e+00 3.94e-04 -11.0 1.88e-02    -  1.00e+00 1.00e+00F  1
  87  5.6217965e-03 0.00e+00 3.94e-04 -11.0 2.80e-02    -  1.00e+00 4.77e-07h 22
  88  5.6214962e-03 1.96e-05 3.14e-04 -11.0 4.38e-02    -  1.00e+00 3.12e-02f  6
  89  5.6250567e-03 2.45e-08 1.72e-03 -11.0 1.76e-03    -  1.00e+00 1.00e+00H  1
iter    objective    inf_pr   inf_du lg(mu)  ||d||  lg(rg) alpha_du alpha_pr  ls
  90  5.6214724e-03 4.76e-06 9.80e-05 -11.0 1.85e-03    -  1.00e+00 1.00e+00h  1
  91  5.6215053e-03 3.78e-08 1.17e-04 -11.0 1.70e-04    -  1.00e+00 1.00e+00h  1
  92  5.6214870e-03 0.00e+00 2.53e-05 -11.0 1.15e-04    -  1.00e+00 1.00e+00h  1
  93  5.6214835e-03 1.91e-09 3.20e-05 -11.0 1.25e-04    -  1.00e+00 1.00e+00h  1
  94  5.6216681e-03 0.00e+00 3.16e-04 -11.0 2.29e-03    -  1.00e+00 1.00e+00H  1
  95  5.6238244e-03 0.00e+00 1.39e-03 -11.0 1.85e-03    -  1.00e+00 1.00e+00H  1
  96  5.6214766e-03 1.96e-07 5.36e-05 -11.0 1.61e-03    -  1.00e+00 1.00e+00h  1
  97  5.6214753e-03 2.90e-08 4.29e-05 -11.0 3.01e-04    -  1.00e+00 1.00e+00h  1
  98  5.6216534e-03 0.00e+00 2.93e-04 -11.0 1.23e-03    -  1.00e+00 1.00e+00H  1
  99  5.6214804e-03 2.13e-07 6.35e-05 -11.0 9.00e-04    -  1.00e+00 1.00e+00h  1
iter    objective    inf_pr   inf_du lg(mu)  ||d||  lg(rg) alpha_du alpha_pr  ls
 100  5.6225371e-03 0.00e+00 7.65e-04 -11.0 2.11e-03    -  1.00e+00 1.00e+00H  1

Number of Iterations....: 100

                                   (scaled)                 (unscaled)
Objective...............:   5.6225371106396593e-03    5.6225371106396593e-03
Dual infeasibility......:   7.6480968758509886e-04    7.6480968758509886e-04
Constraint violation....:   0.0000000000000000e+00    0.0000000000000000e+00
Variable bound violation:   0.0000000000000000e+00    0.0000000000000000e+00
Complementarity.........:   9.9999999613896496e-12    9.9999999613896496e-12
Overall NLP error.......:   7.6480968758509886e-04    7.6480968758509886e-04


Number of objective function evaluations             = 254
Number of objective gradient evaluations             = 101
Number of equality constraint evaluations            = 0
Number of inequality constraint evaluations          = 254
Number of equality constraint Jacobian evaluations   = 0
Number of inequality constraint Jacobian evaluations = 101
Number of Lagrangian Hessian evaluations             = 0
Total seconds in IPOPT                               = 19.350

EXIT: Maximum Number of Iterations Exceeded.
